Gurobi 12.0.1:   lim:time = 500
  mip:bestbound = 1
Set parameter LogToConsole to value 1
  tech:outlev = 1
Set parameter InfUnbdInfo to value 1
Gurobi Optimizer version 12.0.1 build v12.0.1rc0 (win64 - Windows 11.0 (26100.2))

CPU model: Intel(R) Core(TM) i7-10700 CPU @ 2.90GHz, instruction set [SSE2|AVX|AVX2]
Thread count: 8 physical cores, 16 logical processors, using up to 16 threads

Non-default parameters:
TimeLimit  500
InfUnbdInfo  1

Optimize a model with 404 rows, 830 columns and 4195 nonzeros
Model fingerprint: 0x1aab9580
Model has 4 quadratic constraints
Variable types: 29 continuous, 801 integer (0 binary)
Coefficient statistics:
  Matrix range     [1e+00, 1e+05]
  QMatrix range    [1e+00, 1e+00]
  QLMatrix range   [2e+00, 2e+01]
  Objective range  [1e+01, 3e+02]
  Bounds range     [1e+00, 1e+02]
  RHS range        [1e+00, 1e+05]
  QRHS range       [1e+02, 1e+02]
Presolve removed 31 rows and 70 columns
Presolve time: 0.02s
Presolved: 693 rows, 1076 columns, 5508 nonzeros
Variable types: 17 continuous, 1059 integer (1006 binary)

Root relaxation: objective 7.105243e+02, 40 iterations, 0.00 seconds (0.00 work units)

    Nodes    |    Current Node    |     Objective Bounds      |     Work
 Expl Unexpl |  Obj  Depth IntInf | Incumbent    BestBd   Gap | It/Node Time

     0     0  710.52426    0   18          -  710.52426      -     -    0s
H    0     0                    2352.4500000  710.52426  69.8%     -    0s
H    0     0                    2056.9800000  710.52426  65.5%     -    0s
H    0     0                    1874.6400000  710.52426  62.1%     -    0s
H    0     0                    1262.2500000  710.52426  43.7%     -    0s
     0     0  726.63000    0   22 1262.25000  726.63000  42.4%     -    0s
     0     0  726.63000    0   20 1262.25000  726.63000  42.4%     -    0s
     0     0  726.63000    0   20 1262.25000  726.63000  42.4%     -    0s
H    0     0                    1260.8700000  726.63000  42.4%     -    0s
     0     0  726.63000    0   18 1260.87000  726.63000  42.4%     -    0s
     0     0  726.63000    0   18 1260.87000  726.63000  42.4%     -    0s
     0     0  726.63000    0   18 1260.87000  726.63000  42.4%     -    0s
     0     2  726.63000    0   18 1260.87000  726.63000  42.4%     -    0s
*  262   195              23    1234.8000000  726.67654  41.2%   9.1    0s
H  422   295                    1048.3200000  726.81351  30.7%   9.4    0s

Cutting planes:
  Learned: 7
  Gomory: 7
  Cover: 7
  Implied bound: 38
  MIR: 3
  Inf proof: 18
  Zero half: 7
  RLT: 12

Explored 5475 nodes (57746 simplex iterations) in 0.76 seconds (1.03 work units)
Thread count was 16 (of 16 available processors)

Solution count 7: 1048.32 1234.8 1260.87 ... 2352.45

Optimal solution found (tolerance 1.00e-04)
Best objective 1.048320000000e+03, best bound 1.048320000000e+03, gap 0.0000%

AMPL MP initial flat model has 830 variables (0 integer, 801 binary);
Objectives: 1 linear; 
Constraints:  404 linear; 4 quadratic;

AMPL MP final model has 830 variables (0 integer, 801 binary);
Objectives: 1 linear; 
Constraints:  404 linear; 4 quadratic;


-----RESULTS INFO-----
running_time:  0.828
TC.best_bound:  1048.32
TC:  1048.32
MIP Gap (%):  0
=== Vehicle Routes ===
Vehicle 1: 0 → 21
Vehicle 2: 0 → 21
Vehicle 3: 0 → 1
Vehicle 3: 1 → 21
Vehicle 4: 0 → 4
Vehicle 4: 2 → 3
Vehicle 4: 3 → 12
Vehicle 4: 4 → 14
Vehicle 4: 12 → 16
Vehicle 4: 14 → 2
Vehicle 4: 16 → 18
Vehicle 4: 18 → 21

=== Full Vehicle Routes ===
Vehicle 1: 0 → 0 (0<100)
Vehicle 2: 0 → 0 (0<100)
Vehicle 3: 0 → 1 → 0 (19<100)
Vehicle 4: 0 → 4 → 14 → 2 → 3 → 12 → 16 → 18 → 0 (94<100)
Arc used by MRT line: y variables:
Customer assigment to PL: u variables:
5 12
6 16
7 14
8 18
9 12
10 12
Node is served by regular vehicle: g variables:
1
2
3
4
18
12
14
16
Customer assigment to Home delivery: gm variables:
1
2
3
4
Node total demands: ntd variables:
1 19 1
2 24 1
3 4 1
4 8 1
8 0 0
9 0 0
10 0 0
17 0 0
18 12 1
19 0 0
20 0 0
11 0 0
12 23 1
13 0 0
14 2 1
15 0 0
16 21 1
Customer's demand delivered to PL: l variables:
5
6
7
8
9
10
